TERM = { '.', 's(5)', 's(2)', 's(4)', 'in_1', 'local_0', 'local_1', 'in_2', 'in_4', 'in_3', 's(6)', 's(1)', 's(0)', 'in_5', 's(3)', 'in_0'};
null = '.';
s = 15;
n = 12;
ndeps = 7;
max_registers_sz = 5;
NR = 2;
registers = [|'local_0', 's(6)', |'local_1', 's(0)'|];
dependencies = [|'i32.store8_1', 'i32.load8_u_2', |'i32.store8_1', 'i32.load_4', |'i32.load8_u_2', 'i32.store16_7', |'i32.load_4', 'i32.store16_7', |'i32.store16_7', 'i32.load_9', |'i32.load_9', 'i32.store_12', |'i32.store_12', 'i32.load16_s_14'|];
GET_ENUM = { GET1, GET2, GET3, GET4, GET5, GET6, GET7};
SET_ENUM = { SET1, SET2, SET3, SET4, SET5, SET6, SET7};
TEE_ENUM = { TEE1, TEE2, TEE3, TEE4, TEE5, TEE6, TEE7};
N = 10;
OP = { 'i32.store8_1', 'i32.load8_u_2', 'i32.load_4', 'i32.store16_7', 'i32.const_0', 'i32.load_9', 'i32.store_12', 'i32.add_0', 'i32.load16_s_14', 'i32.const_1' };
in_ops = [2, 1, 1, 2, 0, 1, 2, 2, 1, 0 ];
out_ops = [0, 1, 1, 0, 1, 1, 0, 1, 1, 1 ];
in1 = ['local_0', 'in_1', 'in_2', 's(0)', '.', 's(5)', 's(2)', 'in_4', 's(3)', '.' ];
in2 = ['in_0', '.', '.', 's(1)', '.', '.', 'in_3', 'in_5', '.', '.' ];
in3 = ['.', '.', '.', '.', '.', '.', '.', '.', '.', '.' ];
out1 = ['.', 's(0)', 's(1)', '.', 's(5)', 's(2)', '.', 's(3)', 's(4)', 's(6)' ];
out2 = ['.', '.', '.', '.', '.', '.', '.', '.', '.', '.' ];
out3 = ['.', '.', '.', '.', '.', '.', '.', '.', '.', '.' ];
comm = [false, false, false, false, false, false, false, true, false, false ];
gas = [1, 1, 1, 1, 1, 1, 1, 1, 1, 1 ];
sz = [1, 1, 1, 1, 1, 1, 1, 1, 1, 1 ];
stor = [true, false, false, true, false, false, true, false, false, false ];
lb = [ 1, 1, 1, 1, 1, 1, 1, 1, 1, 1 ];
ub = [ 15, 15, 15, 15, 15, 15, 15, 15, 15, 15 ];
startstack = [ 'in_0', 'in_1', 'in_2', 'in_3', 'in_4', 'in_5', null, null, null, null, null, null ];
endstack = [ 's(4)', null, null, null, null, null, null, null, null, null, null, null ];
